Cu O                                    
1.0
       13.6230039597         0.0000000000         0.0000000000
        0.0000000000         3.5902650356         0.0000000000
       -1.5272889388         0.0000000000        10.1842789905
    O   Cu
   24   24
Direct
     0.000000000         0.445064992         0.125000000
     0.000000000         0.445064992         0.625000000
     0.333332986         0.445064992         0.125000000
     0.333332986         0.445064992         0.625000000
     0.666666985         0.445064992         0.125000000
     0.666666985         0.445064992         0.625000000
     0.000000000         0.554934978         0.375000000
     0.000000000         0.554934978         0.875000000
     0.333332986         0.554934978         0.375000000
     0.333332986         0.554934978         0.875000000
     0.666666985         0.554934978         0.375000000
     0.666666985         0.554934978         0.875000000
     0.166666999         0.945065022         0.125000000
     0.166666999         0.945065022         0.625000000
     0.500000000         0.945065022         0.125000000
     0.500000000         0.945065022         0.625000000
     0.833333015         0.945065022         0.125000000
     0.833333015         0.945065022         0.625000000
     0.166666999         0.054935001         0.375000000
     0.166666999         0.054935001         0.875000000
     0.500000000         0.054935001         0.375000000
     0.500000000         0.054935001         0.875000000
     0.833333015         0.054935001         0.375000000
     0.833333015         0.054935001         0.875000000
     0.083333001         0.250000000         0.000000000
     0.083333001         0.250000000         0.500000000
     0.416667014         0.250000000         0.000000000
     0.416667014         0.250000000         0.500000000
     0.750000000         0.250000000         0.000000000
     0.750000000         0.250000000         0.500000000
     0.250000000         0.750000000         0.000000000
     0.250000000         0.750000000         0.500000000
     0.583333015         0.750000000         0.000000000
     0.583333015         0.750000000         0.500000000
     0.916666985         0.750000000         0.000000000
     0.916666985         0.750000000         0.500000000
     0.250000000         0.250000000         0.250000000
     0.250000000         0.250000000         0.750000000
     0.583333015         0.250000000         0.250000000
     0.583333015         0.250000000         0.750000000
     0.916666985         0.250000000         0.250000000
     0.916666985         0.250000000         0.750000000
     0.083333001         0.750000000         0.250000000
     0.083333001         0.750000000         0.750000000
     0.416667014         0.750000000         0.250000000
     0.416667014         0.750000000         0.750000000
     0.750000000         0.750000000         0.250000000
     0.750000000         0.750000000         0.750000000
